% Dimensiones del tablero
filas = 5;
columnas = 5;

% Definición de las pistas
tipo_celda = array2d(1..filas, 1..columnas, [
    NEGRA,   NEGRA,    SUMA_V,  SUMA_V,   NEGRA,
    NEGRA,   SUMA_HV,  BLANCA,  BLANCA,   SUMA_V,
    SUMA_H,  BLANCA,   BLANCA,  BLANCA,   BLANCA,
    SUMA_H,  BLANCA,   BLANCA,  BLANCA,   BLANCA,
    NEGRA,   SUMA_H,   BLANCA,  BLANCA,   NEGRA
]);

% Pistas para sumas horizontales
pistas_h = array2d(1..filas, 1..columnas, [
     0,   0,   0,   0,   0,   
     0,  17,   0,   0,   0,  
    22,   0,   0,   0,   0,  
    16,   0,   0,   0,   0,  
     0,   7,   0,   0,   0   
]);


% Pistas para sumas verticales
pistas_v = array2d(1..filas, 1..columnas, [
    0,    0,  14,  28,   0,  
    0,    4,   0,   0,   16,  
    0,    0,   0,   0,   0,  
    0,    0,   0,   0,   0,   
    0,    0,   0,   0,   0    
]);